ARO/TP Ampl/tp2_entrepreneur/entrepreneur.dat
data;

set OBJ := tel dvd montre;

param budget:= 1000000;
param pers:= 700;
param: prix use_min conso_t pers_sem :=
tv 20000 10 1800000 7
mag 10000 0 1000000 21
radio 2000 120 200000 1;

param poids_max >= 30;
param volume_max >= 200000;
param val poids volume dispo :=
tel 20 0.2 125 20
dvd 35 1 15000 15
montre 10 0.3 50 50;
