ARO/TP Ampl/tp2_entrepreneur/entrepreneur
/* Marion Noirbent
ARO TP2
Lanceur du modele entrepeuneur */

reset;

model entrepreneur.mod
data entrepreneur.dat
solve;

display , , ;
